c File: flat30_3_0.col
c
c SOURCE: Joseph Culberson (joe@cs.ualberta.ca)
c DESCRIPTION: Quasi-random coloring problem
c              generated with flatness = 0
c                             probability = 0.200
c                             known coloring = 3
c                             random seed = 248394
c              Creation Date:  Fri Nov 29 22:02:49 1996
c Maximum degree = 6 Minimum degree = 2
c
c cnf created by edge2cnf
p cnf 90 300
-1 -2 0
-1 -3 0
-2 -3 0
1 2 3 0
-4 -5 0
-4 -6 0
-5 -6 0
4 5 6 0
-7 -8 0
-7 -9 0
-8 -9 0
7 8 9 0
-10 -11 0
-10 -12 0
-11 -12 0
10 11 12 0
-13 -14 0
-13 -15 0
-14 -15 0
13 14 15 0
-16 -17 0
-16 -18 0
-17 -18 0
16 17 18 0
-19 -20 0
-19 -21 0
-20 -21 0
19 20 21 0
-22 -23 0
-22 -24 0
-23 -24 0
22 23 24 0
-25 -26 0
-25 -27 0
-26 -27 0
25 26 27 0
-28 -29 0
-28 -30 0
-29 -30 0
28 29 30 0
-31 -32 0
-31 -33 0
-32 -33 0
31 32 33 0
-34 -35 0
-34 -36 0
-35 -36 0
34 35 36 0
-37 -38 0
-37 -39 0
-38 -39 0
37 38 39 0
-40 -41 0
-40 -42 0
-41 -42 0
40 41 42 0
-43 -44 0
-43 -45 0
-44 -45 0
43 44 45 0
-46 -47 0
-46 -48 0
-47 -48 0
46 47 48 0
-49 -50 0
-49 -51 0
-50 -51 0
49 50 51 0
-52 -53 0
-52 -54 0
-53 -54 0
52 53 54 0
-55 -56 0
-55 -57 0
-56 -57 0
55 56 57 0
-58 -59 0
-58 -60 0
-59 -60 0
58 59 60 0
-61 -62 0
-61 -63 0
-62 -63 0
61 62 63 0
-64 -65 0
-64 -66 0
-65 -66 0
64 65 66 0
-67 -68 0
-67 -69 0
-68 -69 0
67 68 69 0
-70 -71 0
-70 -72 0
-71 -72 0
70 71 72 0
-73 -74 0
-73 -75 0
-74 -75 0
73 74 75 0
-76 -77 0
-76 -78 0
-77 -78 0
76 77 78 0
-79 -80 0
-79 -81 0
-80 -81 0
79 80 81 0
-82 -83 0
-82 -84 0
-83 -84 0
82 83 84 0
-85 -86 0
-85 -87 0
-86 -87 0
85 86 87 0
-88 -89 0
-88 -90 0
-89 -90 0
88 89 90 0
-31 -1 0
-32 -2 0
-33 -3 0
-37 -1 0
-38 -2 0
-39 -3 0
-55 -1 0
-56 -2 0
-57 -3 0
-85 -1 0
-86 -2 0
-87 -3 0
-46 -4 0
-47 -5 0
-48 -6 0
-58 -4 0
-59 -5 0
-60 -6 0
-70 -4 0
-71 -5 0
-72 -6 0
-79 -4 0
-80 -5 0
-81 -6 0
-88 -4 0
-89 -5 0
-90 -6 0
-43 -7 0
-44 -8 0
-45 -9 0
-46 -7 0
-47 -8 0
-48 -9 0
-58 -7 0
-59 -8 0
-60 -9 0
-61 -7 0
-62 -8 0
-63 -9 0
-34 -10 0
-35 -11 0
-36 -12 0
-40 -10 0
-41 -11 0
-42 -12 0
-52 -10 0
-53 -11 0
-54 -12 0
-64 -10 0
-65 -11 0
-66 -12 0
-67 -10 0
-68 -11 0
-69 -12 0
-73 -10 0
-74 -11 0
-75 -12 0
-31 -13 0
-32 -14 0
-33 -15 0
-34 -13 0
-35 -14 0
-36 -15 0
-46 -13 0
-47 -14 0
-48 -15 0
-67 -13 0
-68 -14 0
-69 -15 0
-79 -13 0
-80 -14 0
-81 -15 0
-85 -13 0
-86 -14 0
-87 -15 0
-31 -16 0
-32 -17 0
-33 -18 0
-58 -16 0
-59 -17 0
-60 -18 0
-67 -16 0
-68 -17 0
-69 -18 0
-49 -19 0
-50 -20 0
-51 -21 0
-64 -19 0
-65 -20 0
-66 -21 0
-34 -22 0
-35 -23 0
-36 -24 0
-55 -22 0
-56 -23 0
-57 -24 0
-61 -22 0
-62 -23 0
-63 -24 0
-73 -22 0
-74 -23 0
-75 -24 0
-82 -22 0
-83 -23 0
-84 -24 0
-73 -25 0
-74 -26 0
-75 -27 0
-76 -25 0
-77 -26 0
-78 -27 0
-79 -25 0
-80 -26 0
-81 -27 0
-40 -28 0
-41 -29 0
-42 -30 0
-61 -28 0
-62 -29 0
-63 -30 0
-67 -31 0
-68 -32 0
-69 -33 0
-70 -31 0
-71 -32 0
-72 -33 0
-85 -31 0
-86 -32 0
-87 -33 0
-61 -34 0
-62 -35 0
-63 -36 0
-64 -34 0
-65 -35 0
-66 -36 0
-76 -34 0
-77 -35 0
-78 -36 0
-70 -37 0
-71 -38 0
-72 -39 0
-73 -37 0
-74 -38 0
-75 -39 0
-76 -37 0
-77 -38 0
-78 -39 0
-79 -40 0
-80 -41 0
-81 -42 0
-82 -40 0
-83 -41 0
-84 -42 0
-67 -43 0
-68 -44 0
-69 -45 0
-76 -46 0
-77 -47 0
-78 -48 0
-85 -49 0
-86 -50 0
-87 -51 0
-82 -52 0
-83 -53 0
-84 -54 0
-88 -52 0
-89 -53 0
-90 -54 0
-82 -55 0
-83 -56 0
-84 -57 0
-67 -58 0
-68 -59 0
-69 -60 0
-85 -58 0
-86 -59 0
-87 -60 0
-88 -58 0
-89 -59 0
-90 -60 0
